%BLOCK LATTICE_CART
   3.984836281325971   0.050601528095111   0.000001156687002
  -0.050596573855101   3.984870666287343  -0.000000348027579
   0.000001095190773  -0.000000308739828   3.985200261937266
%END BLOCK LATTICE_CART
%BLOCK POSITIONS_FRAC
    Al   0.000000000000000   0.000000000000000   0.000000000000000
    Al   0.500000000000000   0.500000000000000   0.000000000000000
    Al   0.000000000000000   0.500000000000000   0.500000000000000
    Al   0.500000000000000   0.000000000000000   0.500000000000000
%END BLOCK POSITIONS_FRAC
%BLOCK SPECIES_POT
    Al al_HC.lda.recpot                                                                       
%END BLOCK SPECIES_POT
