%BLOCK LATTICE_CART
   3.869104452400000   0.100000000000000   0.000000000000000
   0.000000000000000   3.969104452400000   0.000000000000000
   0.000000000000000   0.000000000000000   4.000000000000000
%END BLOCK LATTICE_CART
%BLOCK POSITIONS_FRAC
    Al   0.026242363836079   0.012513411405787   0.997499799127206
    Al   0.526213499121448   0.512582285849498   0.997494511543261
    Al   0.026254939350756   0.512439721648613   0.497479346361002
    Al   0.526294902673969   0.012517237611835   0.497501509902651
%END BLOCK POSITIONS_FRAC
%BLOCK SPECIES_POT
    Al al_HC.lda.recpot                                                                       
%END BLOCK SPECIES_POT
