%BLOCK LATTICE_CART
   3.869104452400000   0.100000000000000   0.000000000000000
   0.000000000000000   3.969104452400000   0.000000000000000
   0.000000000000000   0.000000000000000   4.000000000000000
%END BLOCK LATTICE_CART
%BLOCK POSITIONS_FRAC
    Al   0.000000000000000   0.000000000000000   0.000000000000000
    Al   0.500000000000000   0.500000000000000   0.000000000000000
    Al   0.000000000000000   0.500000000000000   0.500000000000000
    Al   0.500000000000000   0.000000000000000   0.500000000000000
%END BLOCK POSITIONS_FRAC
%BLOCK SPECIES_POT
    Al al_HC.lda.recpot                                   
%END BLOCK SPECIES_POT

